presolving:
(round 1, fast)       960 del vars, 7453 del conss, 0 add conss, 10472 chg bounds, 0 chg sides, 10506 chg coeffs, 0 upgd conss, 0 impls, 0 clqs
(round 2, fast)       1128 del vars, 7509 del conss, 0 add conss, 10472 chg bounds, 0 chg sides, 10506 chg coeffs, 0 upgd conss, 0 impls, 0 clqs
(round 3, fast)       1128 del vars, 7509 del conss, 0 add conss, 20944 chg bounds, 0 chg sides, 10506 chg coeffs, 0 upgd conss, 0 impls, 0 clqs
(round 4, fast)       1128 del vars, 7509 del conss, 0 add conss, 20944 chg bounds, 0 chg sides, 21012 chg coeffs, 0 upgd conss, 0 impls, 10472 clqs
   (0.3s) running MILP presolver
   (0.3s) MILP presolver found nothing
(round 5, exhaustive) 1128 del vars, 7509 del conss, 0 add conss, 20944 chg bounds, 0 chg sides, 21012 chg coeffs, 10716 upgd conss, 0 impls, 10472 clqs
(round 6, fast)       1128 del vars, 7509 del conss, 0 add conss, 20944 chg bounds, 1 chg sides, 27419 chg coeffs, 10716 upgd conss, 0 impls, 10472 clqs
(round 7, medium)     1128 del vars, 13901 del conss, 6358 add conss, 20944 chg bounds, 1 chg sides, 27419 chg coeffs, 10716 upgd conss, 0 impls, 10472 clqs
   (0.6s) probing: 51/10528 (0.5%) - 0 fixings, 0 aggregations, 0 implications, 0 bound changes
   (0.6s) probing aborted: 50/50 successive totally useless probings
   (0.7s) symmetry computation started: requiring (bin +, int -, cont +), (fixed: bin -, int +, cont -)
   (0.7s) no symmetry present
presolving (8 rounds: 8 fast, 3 medium, 2 exhaustive):
 1128 deleted vars, 13901 deleted constraints, 6358 added constraints, 20944 tightened bounds, 0 added holes, 1 changed sides, 27419 changed coefficients
 0 implications, 10472 cliques
presolved problem has 10528 variables (10528 bin, 0 int, 0 impl, 0 cont) and 10682 constraints
     23 constraints of type <knapsack>
  10472 constraints of type <setppc>
    187 constraints of type <logicor>
Presolving Time: 0.64

 time | node  | left  |LP iter|LP it/n|mem/heur|mdpt |vars |cons |rows |cuts |sepa|confs|strbr|  dualbound   | primalbound  |  gap   | compl. 
t 0.7s|     1 |     0 |     0 |     - | trivial|   0 |  10k|  10k|   0 |   0 |  0 |   0 |   0 | 0.000000e+00 | 2.499640e+06 |    Inf | unknown
p 0.8s|     1 |     0 |     0 |     - |  clique|   0 |  10k|  10k|  10k|   0 |  0 |   0 |   0 | 0.000000e+00 | 9.518062e+04 |    Inf | unknown
  6.3s|     1 |     0 | 11532 |     - |   135M |   0 |  10k|  10k|  10k|   0 |  0 |   0 |   0 | 7.411575e+04 | 9.518062e+04 |  28.42%| unknown
  7.0s|     1 |     0 | 11532 |     - |   135M |   0 |  10k|  10k|  10k|   0 |  0 |   0 |   0 | 7.411575e+04 | 9.518062e+04 |  28.42%| unknown
  7.4s|     1 |     0 | 11658 |     - |   138M |   0 |  10k|  10k|  10k|   1 |  1 |   0 |   0 | 7.412140e+04 | 9.518062e+04 |  28.41%| unknown
  7.5s|     1 |     0 | 11658 |     - |   138M |   0 |  10k|  10k|  10k|   1 |  1 |   0 |   0 | 7.412140e+04 | 9.518062e+04 |  28.41%| unknown
d 9.9s|     1 |     0 | 16043 |     - |farkasdi|   0 |  10k|9356 |  10k|   0 |  3 |   0 |   0 | 7.412140e+04 | 7.763076e+04 |   4.73%| unknown
o10.5s|     1 |     0 | 22631 |     - |feaspump|   0 |  10k|9356 |  10k|   1 |  3 |   0 |   0 | 7.412140e+04 | 7.471668e+04 |   0.80%| unknown
L10.7s|     1 |     0 | 22631 |     - |    rens|   0 |  10k|9356 |  10k|   1 |  3 |   0 |   0 | 7.412140e+04 | 7.455017e+04 |   0.58%| unknown
(run 1, node 1) restarting after 1333 global fixings of integer variables

presolving:
(round 1, fast)       1333 del vars, 0 del conss, 0 add conss, 0 chg bounds, 0 chg sides, 1326 chg coeffs, 0 upgd conss, 0 impls, 9146 clqs
presolving (2 rounds: 2 fast, 1 medium, 1 exhaustive):
 1333 deleted vars, 0 deleted constraints, 0 added constraints, 0 tightened bounds, 0 added holes, 0 changed sides, 1326 changed coefficients
 0 implications, 9146 cliques
presolved problem has 9195 variables (9195 bin, 0 int, 0 impl, 0 cont) and 9356 constraints
     23 constraints of type <knapsack>
   9146 constraints of type <setppc>
    187 constraints of type <logicor>
Presolving Time: 0.71
transformed 5/6 original solutions to the transformed problem space

 time | node  | left  |LP iter|LP it/n|mem/heur|mdpt |vars |cons |rows |cuts |sepa|confs|strbr|  dualbound   | primalbound  |  gap   | compl. 
 15.6s|     1 |     0 | 34073 |     - |   143M |   0 |9195 |9356 |9356 |   0 |  0 |   0 |   0 | 7.412140e+04 | 7.455017e+04 |   0.58%| unknown
 16.0s|     1 |     0 | 34073 |     - |   143M |   0 |9195 |9356 |7853 |   0 |  0 |   0 |   0 | 7.412140e+04 | 7.455017e+04 |   0.58%| unknown
 16.4s|     1 |     0 | 34211 |     - |   145M |   0 |9195 |7853 |7828 |   1 |  1 |   0 |   0 | 7.412140e+04 | 7.455017e+04 |   0.58%| unknown
 16.4s|     1 |     0 | 34211 |     - |   145M |   0 |9195 |7853 |7788 |   1 |  1 |   0 |   0 | 7.412140e+04 | 7.455017e+04 |   0.58%| unknown
(run 2, node 1) restarting after 4888 global fixings of integer variables

presolving:
(round 1, fast)       4888 del vars, 0 del conss, 0 add conss, 0 chg bounds, 0 chg sides, 4862 chg coeffs, 0 upgd conss, 0 impls, 4284 clqs
   (18.2s) running MILP presolver
   (18.2s) MILP presolver found nothing
presolving (2 rounds: 2 fast, 1 medium, 1 exhaustive):
 4888 deleted vars, 0 deleted constraints, 0 added constraints, 0 tightened bounds, 0 added holes, 0 changed sides, 4862 changed coefficients
 0 implications, 4284 cliques
presolved problem has 4307 variables (4307 bin, 0 int, 0 impl, 0 cont) and 4492 constraints
     16 constraints of type <knapsack>
   4284 constraints of type <setppc>
      1 constraints of type <linear>
    191 constraints of type <logicor>
Presolving Time: 0.82
transformed 4/7 original solutions to the transformed problem space

 time | node  | left  |LP iter|LP it/n|mem/heur|mdpt |vars |cons |rows |cuts |sepa|confs|strbr|  dualbound   | primalbound  |  gap   | compl. 
 20.5s|     1 |     0 | 45658 |     - |   147M |   0 |4307 |4492 |4487 |   0 |  0 |   5 |   0 | 7.412140e+04 | 7.455017e+04 |   0.58%| unknown
 20.5s|     1 |     0 | 45658 |     - |   147M |   0 |4307 |4492 |4328 |   0 |  0 |   5 |   0 | 7.412140e+04 | 7.455017e+04 |   0.58%| unknown
 20.7s|     1 |     0 | 45746 |     - |   148M |   0 |4307 |4333 |4328 |   1 |  1 |   5 |   0 | 7.412140e+04 | 7.455017e+04 |   0.58%| unknown
 20.7s|     1 |     0 | 45746 |     - |   148M |   0 |4307 |4333 |4326 |   1 |  1 |   5 |   0 | 7.412140e+04 | 7.455017e+04 |   0.58%| unknown
 23.3s|     1 |     0 | 47917 |     - |   149M |   0 |4307 |2228 |4326 |   1 |  3 |  27 |   6 | 7.453840e+04 | 7.455017e+04 |   0.02%| unknown
 23.3s|     1 |     0 | 47917 |     - |   149M |   0 |4307 |2228 |2230 |   1 |  3 |  27 |   6 | 7.453840e+04 | 7.455017e+04 |   0.02%| unknown
 23.3s|     1 |     0 | 47924 |     - |   148M |   0 |4307 |1063 |2232 |   3 |  4 |  27 |   6 | 7.454212e+04 | 7.455017e+04 |   0.01%| unknown
 23.3s|     1 |     0 | 47924 |     - |   148M |   0 |4307 |1063 |2198 |   3 |  4 |  27 |   6 | 7.454212e+04 | 7.455017e+04 |   0.01%| unknown
 23.4s|     1 |     0 | 47967 |     - |   148M |   0 |4307 |1063 |2199 |   4 |  5 |  27 |   6 | 7.454306e+04 | 7.455017e+04 |   0.01%| unknown
 23.4s|     1 |     0 | 47967 |     - |   149M |   0 |4307 |1063 |2158 |   4 |  5 |  27 |   6 | 7.454306e+04 | 7.455017e+04 |   0.01%| unknown
(run 3, node 1) restarting after 3243 global fixings of integer variables

(restart) converted 2 cuts from the global cut pool into linear constraints

presolving:
(round 1, fast)       3243 del vars, 87 del conss, 0 add conss, 0 chg bounds, 0 chg sides, 3845 chg coeffs, 0 upgd conss, 0 impls, 723 clqs
(round 2, fast)       3253 del vars, 95 del conss, 0 add conss, 0 chg bounds, 0 chg sides, 3850 chg coeffs, 0 upgd conss, 0 impls, 715 clqs
   (23.4s) running MILP presolver
   (23.4s) MILP presolver found nothing
(round 3, medium)     3253 del vars, 679 del conss, 576 add conss, 0 chg bounds, 0 chg sides, 3850 chg coeffs, 0 upgd conss, 0 impls, 715 clqs
(round 4, exhaustive) 3253 del vars, 679 del conss, 576 add conss, 0 chg bounds, 0 chg sides, 3850 chg coeffs, 2 upgd conss, 0 impls, 715 clqs
presolving (5 rounds: 5 fast, 3 medium, 2 exhaustive):
 3253 deleted vars, 679 deleted constraints, 576 added constraints, 0 tightened bounds, 0 added holes, 0 changed sides, 3850 changed coefficients
 0 implications, 715 cliques
presolved problem has 1054 variables (1054 bin, 0 int, 0 impl, 0 cont) and 902 constraints
      5 constraints of type <knapsack>
    708 constraints of type <setppc>
      1 constraints of type <linear>
    188 constraints of type <logicor>
Presolving Time: 0.87
transformed 4/10 original solutions to the transformed problem space

 time | node  | left  |LP iter|LP it/n|mem/heur|mdpt |vars |cons |rows |cuts |sepa|confs|strbr|  dualbound   | primalbound  |  gap   | compl. 
 23.4s|     1 |     0 | 48559 |     - |   150M |   0 |1054 | 902 | 898 |   0 |  0 |  27 |   6 | 7.454306e+04 | 7.455017e+04 |   0.01%| unknown
 23.4s|     1 |     0 | 48559 |     - |   150M |   0 |1054 | 902 | 586 |   0 |  0 |  27 |   6 | 7.454306e+04 | 7.455017e+04 |   0.01%| unknown
 23.4s|     1 |     0 | 48578 |     - |   151M |   0 |1054 | 572 | 584 |   1 |  1 |  27 |   6 | 7.454801e+04 | 7.455017e+04 |   0.00%| unknown
 23.4s|     1 |     0 | 48578 |     - |   151M |   0 |1054 | 572 | 569 |   1 |  1 |  27 |   6 | 7.454801e+04 | 7.455017e+04 |   0.00%| unknown
 23.5s|     1 |     0 | 48593 |     - |   151M |   0 |1054 | 413 | 571 |   3 |  2 |  27 |   6 | 7.454980e+04 | 7.455017e+04 |   0.00%| unknown
 23.5s|     1 |     0 | 48595 |     - |   151M |   0 |1054 | 413 | 557 |   3 |  2 |  28 |   6 | 7.455017e+04 | 7.455017e+04 |   0.00%| unknown
 23.5s|     1 |     0 | 48595 |     - |   151M |   0 |1054 | 413 | 557 |   3 |  2 |  28 |   6 | 7.455017e+04 | 7.455017e+04 |   0.00%| unknown

SCIP Status        : problem is solved [optimal solution found]
Solving Time (sec) : 23.46
Solving Nodes      : 1 (total of 4 nodes in 4 runs)
Primal Bound       : +7.45501735484008e+04 (10 solutions)
Dual Bound         : +7.45501735484008e+04
Gap                : 0.00 %
Solve Status: optimal
Solve Time: 23.46 seconds
